! engrad UHF revPBE def2-TZVP def2/J D3BJ slowconv 
%scf Convergence Tight 
SmearTemp 5000.0 
maxiter 500 
  Rotate 
  {  1,   7,      28.37, 0, 0} 
  {  6,   9,      54.55, 0, 0} 
  {  2,  10,      27.42, 0, 0} 
  {  0,  14,      8.014, 1, 1} 
  {  3,  15,       35.3, 1, 1} 
  {  5,  13,      51.31, 1, 1} 
  {  2,  10,      17.84, 1, 1} 
  {  1,  11,      59.83, 1, 1} 
end 
 
end 
 
*xyz 0 1 
C   0.0 0.0 0.0
O   0.5 0.0 0.0
*
